Solver command line: ['C:\\gurobi1002\\win64\\bin\\gurobi.bat']

Set parameter Username
Academic license - for non-commercial use only - expires 2024-08-20
Read LP format model from file C:\Users\mhafeman\AppData\Local\Temp\tmp6c3yt5b8.pyomo.lp
Reading time = 0.01 seconds
obj: 733 rows, 647 columns, 1751 nonzeros
Gurobi Optimizer version 10.0.2 build v10.0.2rc0 (win64)

CPU model: AMD Ryzen 7 3800X 8-Core Processor, instruction set [SSE2|AVX|AVX2]
Thread count: 8 physical cores, 16 logical processors, using up to 16 threads

Optimize a model with 733 rows, 647 columns and 1751 nonzeros
Model fingerprint: 0x5d2bf9da
Model has 23 quadratic constraints
Variable types: 456 continuous, 191 integer (144 binary)
Coefficient statistics:
  Matrix range     [1e-03, 3e+02]
  QMatrix range    [1e+00, 1e+00]
  Objective range  [1e+01, 6e+01]
  Bounds range     [1e+00, 3e+00]
  RHS range        [2e-02, 1e+01]
Presolve removed 617 rows and 507 columns
Presolve time: 0.00s
Presolved: 116 rows, 140 columns, 336 nonzeros
Variable types: 70 continuous, 70 integer (70 binary)
Found heuristic solution: objective -1127.951954
Found heuristic solution: objective -1132.951954

Root relaxation: objective -1.246906e+03, 25 iterations, 0.00 seconds (0.00 work units)

    Nodes    |    Current Node    |     Objective Bounds      |     Work
 Expl Unexpl |  Obj  Depth IntInf | Incumbent    BestBd   Gap | It/Node Time

*    0     0               0    -1246.906015 -1246.9060  0.00%     -    0s

Explored 1 nodes (25 simplex iterations) in 0.01 seconds (0.00 work units)
Thread count was 16 (of 16 available processors)

Solution count 3: -1246.91 -1132.95 -1127.95 
No other solutions better than -1246.91

Optimal solution found (tolerance 1.00e-04)
Best objective -1.246906014610e+03, best bound -1.246906014610e+03, gap 0.0000%

